103
0 90 27 57 93 16 98 92 14 30 
23 19 7 31 78 20 86 96 82 100 
66 49 28 29 53 47 97 41 40 52 
62 56 60 48 35 74 67 3 81 10 
12 38 6 21 39 24 44 84 2 64 
89 72 85 11 95 99 69 63 71 22 
58 9 76 5 75 32 36 55 68 50 
1 88 42 18 61 83 101 94 73 13 
79 77 87 45 59 70 25 91 17 8 
33 4 102 26 65 80 37 34 43 46 
15 51 54 
